data/CVRPLIB/Vrp-Set-XML100/instances/XML100_1112_01.vrp
NAME : XML100_1112_01
COMMENT : Generated by Queiroga, Sadykov, Uchoa, and Vidal (2021)
TYPE : CVRP
DIMENSION : 101
EDGE_WEIGHT_TYPE : EUC_2D
CAPACITY : 5
NODE_COORD_SECTION
1    597  178 
2    189  689 
3    954  878 
4    260  520 
5    392  843 
6    365  360 
7    131  187 
8    736  91  
9    771  633 
10   727  521 
11   545  448 
12   62   201 
13   440  830 
14   3    985 
15   863  165 
16   750  617 
17   426  671 
18   417  213 
19   476  30  
20   496  739 
21   276  372 
22   34   789 
23   251  660 
24   781  644 
25   407  553 
26   102  131 
27   888  451 
28   400  697 
29   831  510 
30   627  21  
31   294  231 
32   232  680 
33   484  342 
34   95   985 
35   322  675 
36   910  279 
37   115  373 
38   72   760 
39   884  350 
40   304  828 
41   842  891 
42   149  428 
43   63   841 
44   946  221 
45   372  647 
46   506  691 
47   124  311 
48   520  525 
49   24   999 
50   172  768 
51   877  409 
52   314  989 
53   319  506 
54   132  464 
55   660  586 
56   880  494 
57   318  550 
58   964  15  
59   57   813 
60   673  296 
61   82   162 
62   194  805 
63   875  785 
64   131  13  
65   704  978 
66   27   240 
67   952  160 
68   342  576 
69   762  398 
70   243  61  
71   197  914 
72   511  653 
73   716  401 
74   377  257 
75   359  585 
76   204  38  
77   35   318 
78   167  368 
79   397  392 
80   32   764 
81   421  31  
82   129  904 
83   662  270 
84   576  869 
85   159  256 
86   123  417 
87   499  861 
88   243  866 
89   219  196 
90   663  175 
91   451  637 
92   674  504 
93   807  374 
94   16   71  
95   900  979 
96   393  207 
97   293  684 
98   838  259 
99   461  850 
100  409  117 
101  330  790 
DEMAND_SECTION
1    0   
2    1   
3    1   
4    1   
5    1   
6    1   
7    1   
8    1   
9    1   
10   1   
11   1   
12   1   
13   1   
14   1   
15   1   
16   1   
17   1   
18   1   
19   1   
20   1   
21   1   
22   1   
23   1   
24   1   
25   1   
26   1   
27   1   
28   1   
29   1   
30   1   
31   1   
32   1   
33   1   
34   1   
35   1   
36   1   
37   1   
38   1   
39   1   
40   1   
41   1   
42   1   
43   1   
44   1   
45   1   
46   1   
47   1   
48   1   
49   1   
50   1   
51   1   
52   1   
53   1   
54   1   
55   1   
56   1   
57   1   
58   1   
59   1   
60   1   
61   1   
62   1   
63   1   
64   1   
65   1   
66   1   
67   1   
68   1   
69   1   
70   1   
71   1   
72   1   
73   1   
74   1   
75   1   
76   1   
77   1   
78   1   
79   1   
80   1   
81   1   
82   1   
83   1   
84   1   
85   1   
86   1   
87   1   
88   1   
89   1   
90   1   
91   1   
92   1   
93   1   
94   1   
95   1   
96   1   
97   1   
98   1   
99   1   
100  1   
101  1   
DEPOT_SECTION
1
-1
EOF
