data/CVRPLIB/Vrp-Set-XML100/solutions/XML100_1112_01.sol
Route #1: 24 74 67 56 52
Route #2: 69 75 63 93 25
Route #3: 89 29 18 80 99
Route #4: 83 86 98 12 19
Route #5: 7 57 66 43 14
Route #6: 41 53 85 36 77
Route #7: 50 26 55 28 68
Route #8: 100 39 87 51 4
Route #9: 62 2 94 40 64
Route #10: 71 45 27 16 90
Route #11: 32 78 5 73 17
Route #12: 88 6 84 30 95
Route #13: 22 31 61 49 1
Route #14: 54 15 8 23 9
Route #15: 42 58 21 79 37
Route #16: 81 13 48 33 70
Route #17: 60 11 65 76 46
Route #18: 10 47 91 72 59
Route #19: 20 3 96 34 44
Route #20: 97 35 38 92 82
Cost 24781
